
Starting CP-SAT solver v9.15.6755
Parameters: random_seed: 2026073652 max_time_in_seconds: 2313.333333140778 log_search_progress: true cp_model_presolve: true linearization_level: 2 num_search_workers: 4 cp_model_probing_level: 2 symmetry_level: 2

Initial satisfaction model '': (model_fingerprint: 0xe64731efa58482d9)
#Variables: 724 (608 primary variables)
  - 724 Booleans in [0,1]
#kBoolAnd: 110 (#enforced: 110) (#literals: 330)
#kBoolOr: 110 (#enforced: 110) (#literals: 220)
#kExactlyOne: 87 (#literals: 261)
#kLinear1: 32 (#enforced: 6)
#kLinear2: 336 (#enforced: 336) (#complex_domain: 110)
#kLinear3: 1'600 (#enforced: 6)
#kLinearN: 1'132 (#enforced: 243) (#terms: 9'111)

Starting presolve at 0.00s
  7.08e-04s  0.00e+00d  [DetectDominanceRelations] 
  9.10e-03s  0.00e+00d  [PresolveToFixPoint] #num_loops=3 #num_dual_strengthening=1 
  3.66e-05s  0.00e+00d  [ExtractEncodingFromLinear] #potential_supersets=86 
  3.11e-04s  0.00e+00d  [DetectDuplicateColumns] 
  1.05e-04s  0.00e+00d  [DetectDuplicateConstraints] #duplicates=5 
[Symmetry] Graph for symmetry has 4'868 nodes and 15'706 arcs.
[Symmetry] Symmetry computation done. time: 0.00128821 dtime: 0.00179973
[SAT presolve] num removable Booleans: 220 / 626
[SAT presolve] num trivial clauses: 0
[SAT presolve] [0s] clauses:2'724 literals:7'408 vars:506 one_side_vars:66 simple_definition:1 singleton_clauses:0
[SAT presolve] [0.000228155s] clauses:2'723 literals:7'401 vars:506 one_side_vars:66 simple_definition:1 singleton_clauses:0
[SAT presolve] [0.000595179s] clauses:2'402 literals:6'896 vars:389 one_side_vars:68 simple_definition:24 singleton_clauses:0
  1.36e-04s  0.00e+00d  [DetectDuplicateConstraintsWithDifferentEnforcements] 
  5.93e-03s  2.75e-03d  [Probe] #probed=1'304 #fixed_bools=12 #equiv=9 #new_binary_clauses=948 
  5.90e-04s  4.02e-04d  [MaxClique] Merged 653 constraints with 1'435 literals into 578 constraints with 1'308 literals
  8.51e-04s  0.00e+00d  [DetectDominanceRelations] 
  3.25e-03s  0.00e+00d  [PresolveToFixPoint] #num_loops=1 #num_dual_strengthening=1 
  1.22e-03s  0.00e+00d  [ProcessAtMostOneAndLinear] 
  1.37e-04s  0.00e+00d  [DetectDuplicateConstraints] #duplicates=6 
  9.89e-05s  0.00e+00d  [DetectDuplicateConstraintsWithDifferentEnforcements] 
  2.32e-03s  8.75e-05d  [DetectDominatedLinearConstraints] #relevant_constraints=834 #num_inclusions=438 #num_redundant=7 
  1.32e-04s  0.00e+00d  [DetectDifferentVariables] 
  8.02e-04s  9.06e-05d  [ProcessSetPPC] #relevant_constraints=3'156 #num_inclusions=231 
  3.21e-04s  3.41e-05d  [TransformClausesToExactlyOne] #num_amos=576 #num_clauses=1'759 #num_checked=1'759 
  6.08e-05s  0.00e+00d  [DetectEncodedComplexDomains] 
  3.33e-05s  0.00e+00d  [FindAlmostIdenticalLinearConstraints] 
  9.42e-04s  1.43e-03d  [FindBigAtMostOneAndLinearOverlap] 
  1.43e-03s  1.18e-03d  [FindBigVerticalLinearOverlap] #blocks=3 #saved_nz=111 
  3.83e-04s  6.39e-04d  [FindBigHorizontalLinearOverlap] #linears=460 
  3.29e-04s  2.78e-05d  [MergeClauses] #num_collisions=9 #num_merges=9 #num_saved_literals=39 
  8.63e-04s  0.00e+00d  [DetectDominanceRelations] 
  3.17e-03s  0.00e+00d  [PresolveToFixPoint] #num_loops=2 #num_dual_strengthening=1 
  8.62e-04s  0.00e+00d  [DetectDominanceRelations] 
  3.07e-03s  0.00e+00d  [PresolveToFixPoint] #num_loops=1 #num_dual_strengthening=1 
  1.67e-04s  0.00e+00d  [DetectDuplicateColumns] 
  9.88e-05s  0.00e+00d  [DetectDuplicateConstraints] 
[Symmetry] Graph for symmetry has 4'479 nodes and 14'047 arcs.
[Symmetry] Symmetry computation done. time: 0.00102973 dtime: 0.00143349
[SAT presolve] num removable Booleans: 102 / 488
[SAT presolve] num trivial clauses: 0
[SAT presolve] [0s] clauses:2'292 literals:6'634 vars:458 one_side_vars:144 simple_definition:37 singleton_clauses:0
[SAT presolve] [0.000239707s] clauses:2'292 literals:6'476 vars:458 one_side_vars:158 simple_definition:82 singleton_clauses:0
[SAT presolve] [0.000381121s] clauses:2'156 literals:6'179 vars:452 one_side_vars:183 simple_definition:63 singleton_clauses:0
  1.85e-04s  0.00e+00d  [DetectDuplicateConstraintsWithDifferentEnforcements] #without_enforcements=1 
  5.76e-03s  1.91e-03d  [Probe] #probed=1'292 #new_binary_clauses=565 
  4.31e-04s  2.90e-04d  [MaxClique] Merged 495 constraints with 1'081 literals into 490 constraints with 1'081 literals
  8.55e-04s  0.00e+00d  [DetectDominanceRelations] 
  3.11e-03s  0.00e+00d  [PresolveToFixPoint] #num_loops=1 #num_dual_strengthening=1 
  1.13e-03s  0.00e+00d  [ProcessAtMostOneAndLinear] 
  1.18e-04s  0.00e+00d  [DetectDuplicateConstraints] 
  9.85e-05s  0.00e+00d  [DetectDuplicateConstraintsWithDifferentEnforcements] 
  2.19e-03s  7.87e-05d  [DetectDominatedLinearConstraints] #relevant_constraints=828 #num_inclusions=418 
  1.59e-04s  0.00e+00d  [DetectDifferentVariables] 
  7.46e-04s  7.70e-05d  [ProcessSetPPC] #relevant_constraints=3'063 #num_inclusions=105 
  3.13e-04s  3.25e-05d  [TransformClausesToExactlyOne] #num_amos=492 #num_clauses=1'699 #num_checked=1'699 
  5.33e-05s  0.00e+00d  [DetectEncodedComplexDomains] 
  4.45e-05s  0.00e+00d  [FindAlmostIdenticalLinearConstraints] 
  8.76e-04s  1.26e-03d  [FindBigAtMostOneAndLinearOverlap] 
  1.32e-03s  1.09e-03d  [FindBigVerticalLinearOverlap] #blocks=2 #saved_nz=65 
  3.52e-04s  5.81e-04d  [FindBigHorizontalLinearOverlap] #linears=456 
  3.64e-04s  2.63e-05d  [MergeClauses] #num_collisions=73 #num_merges=73 #num_saved_literals=196 
  9.13e-04s  0.00e+00d  [DetectDominanceRelations] 
  3.17e-03s  0.00e+00d  [PresolveToFixPoint] #num_loops=2 #num_dual_strengthening=1 
  8.55e-04s  0.00e+00d  [DetectDominanceRelations] 
  3.06e-03s  0.00e+00d  [PresolveToFixPoint] #num_loops=1 #num_dual_strengthening=1 
  2.25e-04s  0.00e+00d  [DetectDuplicateColumns] 
  1.11e-04s  0.00e+00d  [DetectDuplicateConstraints] 
[Symmetry] Graph for symmetry has 4'284 nodes and 13'265 arcs.
[Symmetry] Symmetry computation done. time: 0.000899889 dtime: 0.00132079
[SAT presolve] num removable Booleans: 96 / 482
[SAT presolve] num trivial clauses: 0
[SAT presolve] [0s] clauses:2'145 literals:6'149 vars:452 one_side_vars:183 simple_definition:63 singleton_clauses:0
[SAT presolve] [0.000196898s] clauses:2'145 literals:6'149 vars:452 one_side_vars:183 simple_definition:63 singleton_clauses:0
[SAT presolve] [0.000259124s] clauses:2'145 literals:6'149 vars:452 one_side_vars:183 simple_definition:63 singleton_clauses:0
  1.97e-04s  0.00e+00d  [DetectDuplicateConstraintsWithDifferentEnforcements] 
  5.63e-03s  1.87e-03d  [Probe] #probed=1'292 #new_binary_clauses=564 
  4.39e-04s  2.86e-04d  [MaxClique] Merged 489 constraints with 1'069 literals into 488 constraints with 1'068 literals
  9.06e-04s  0.00e+00d  [DetectDominanceRelations] 
  3.20e-03s  0.00e+00d  [PresolveToFixPoint] #num_loops=1 #num_dual_strengthening=1 
  1.14e-03s  0.00e+00d  [ProcessAtMostOneAndLinear] 
  1.70e-04s  0.00e+00d  [DetectDuplicateConstraints] 
  1.11e-04s  0.00e+00d  [DetectDuplicateConstraintsWithDifferentEnforcements] 
  1.16e-03s  6.31e-05d  [DetectDominatedLinearConstraints] #relevant_constraints=830 #num_inclusions=338 
  1.37e-04s  0.00e+00d  [DetectDifferentVariables] 
  8.16e-04s  7.43e-05d  [ProcessSetPPC] #relevant_constraints=3'060 #num_inclusions=93 
  3.12e-04s  3.25e-05d  [TransformClausesToExactlyOne] #num_amos=488 #num_clauses=1'699 #num_checked=1'699 
  5.42e-05s  0.00e+00d  [DetectEncodedComplexDomains] 
  4.66e-05s  0.00e+00d  [FindAlmostIdenticalLinearConstraints] 
  8.51e-04s  1.17e-03d  [FindBigAtMostOneAndLinearOverlap] 
  1.33e-03s  1.04e-03d  [FindBigVerticalLinearOverlap] #blocks=2 #saved_nz=74 
  3.35e-04s  5.17e-04d  [FindBigHorizontalLinearOverlap] #linears=452 
  3.55e-04s  2.63e-05d  [MergeClauses] #num_collisions=73 #num_merges=73 #num_saved_literals=196 
  8.83e-04s  0.00e+00d  [DetectDominanceRelations] 
  3.20e-03s  0.00e+00d  [PresolveToFixPoint] #num_loops=2 #num_dual_strengthening=1 
  4.51e-05s  0.00e+00d  [MergeNoOverlap] 
  5.68e-05s  0.00e+00d  [MergeNoOverlap2D] 

Presolve summary:
  - 40 affine relations were detected.
  - rule 'TODO dual: only one blocking constraint?' was applied 847 times.
  - rule 'TODO linear inclusion: superset is equality' was applied 261 times.
  - rule 'affine: new relation' was applied 40 times.
  - rule 'at_most_one: removed literals' was applied 61 times.
  - rule 'at_most_one: size one' was applied 60 times.
  - rule 'at_most_one: transformed into max clique' was applied 3 times.
  - rule 'bool_or: implications' was applied 67 times.
  - rule 'bool_or: only one literal' was applied 12 times.
  - rule 'bool_or: removed enforcement literal' was applied 557 times.
  - rule 'deductions: 856 stored' was applied 1 time.
  - rule 'duplicate: merged rhs of linear constraint' was applied 10 times.
  - rule 'duplicate: removed constraint' was applied 11 times.
  - rule 'duplicate: removed enforced constraint' was applied 1 time.
  - rule 'enforcement: false literal' was applied 34 times.
  - rule 'enforcement: true literal' was applied 8 times.
  - rule 'exactly_one: removed literals' was applied 32 times.
  - rule 'exactly_one: satisfied' was applied 3 times.
  - rule 'exactly_one: singleton' was applied 2 times.
  - rule 'exactly_one: size two' was applied 30 times.
  - rule 'exactly_one: x and not(x)' was applied 6 times.
  - rule 'incompatible linear: add implication' was applied 126 times.
  - rule 'linear + amo: empty after processing' was applied 6 times.
  - rule 'linear + amo: extracted enforcement literal' was applied 54 times.
  - rule 'linear inclusion: redundant containing constraint' was applied 3 times.
  - rule 'linear inclusion: redundant included constraint' was applied 3 times.
  - rule 'linear inclusion: sparsify superset' was applied 1 time.
  - rule 'linear matrix: common vertical rectangle' was applied 7 times.
  - rule 'linear1: always true' was applied 1 time.
  - rule 'linear1: x in domain' was applied 26 times.
  - rule 'linear2: convert ax + by != cte to clauses' was applied 256 times.
  - rule 'linear2: convert implied ax + by == cte to clauses' was applied 114 times.
  - rule 'linear2: implied ax + by = cte has only one solution' was applied 8 times.
  - rule 'linear: always true' was applied 418 times.
  - rule 'linear: empty' was applied 3 times.
  - rule 'linear: enforcement literal in expression' was applied 2 times.
  - rule 'linear: extracted at most one (max)' was applied 1 time.
  - rule 'linear: fixed or dup variables' was applied 881 times.
  - rule 'linear: negative clause' was applied 1'293 times.
  - rule 'linear: negative reified and' was applied 78 times.
  - rule 'linear: never in domain' was applied 6 times.
  - rule 'linear: positive at most one' was applied 34 times.
  - rule 'linear: reduced variable domains' was applied 8 times.
  - rule 'linear: remapped using affine relations' was applied 26 times.
  - rule 'presolve: 78 unused variables removed.' was applied 1 time.
  - rule 'presolve: iteration' was applied 3 times.
  - rule 'probing: bool_or reduced to implication' was applied 29 times.
  - rule 'probing: simplified clauses' was applied 9 times.
  - rule 'setppc: bool_or in at_most_one' was applied 7 times.
  - rule 'setppc: removed dominated constraints' was applied 87 times.
  - rule 'variables: both boolean and its negation fix the same variable' was applied 1 time.
  - rule 'variables: detect half reified value encoding' was applied 2 times.

Presolved satisfaction model '': (model_fingerprint: 0xffa1865b3e50691d)
#Variables: 488 (420 primary variables)
  - 482 Booleans in [0,1]
  - 6 in [0,2]
#kAtMostOne: 44 (#literals: 180)
#kBoolAnd: 265 (#enforced: 265) (#literals: 709)
#kBoolAndClauses: 73 (#enforced: 73 #multi: 73) (#literals: 342)
#kBoolOr: 1'553 (#literals: 4'719)
#kExactlyOne: 52 (#literals: 198)
#kLinear3: 9 (#enforced: 6)
#kLinearN: 823 (#enforced: 124) (#terms: 5'702)
[Symmetry] Graph for symmetry has 4'047 nodes and 13'191 arcs.
[Symmetry] Symmetry computation done. time: 0.000850165 dtime: 0.00133452

Preloading model.
#Model   0.10s var:488/488 constraints:2819/2819

Starting search at 0.10s with 4 workers.
3 full problem subsolvers: [default_lp, max_lp, no_lp]
1 first solution subsolver: [fj]
2 interleaved subsolvers: [feasibility_pump, rins/rens]
2 helper subsolvers: [neighborhood_helper, synchronization_agent]

#Model 195.30s var:487/488 constraints:2801/2819
#Model 388.45s var:486/488 constraints:2799/2819

Task timing                   n [     min,      max]      avg      dev     time         n [     min,      max]      avg      dev    dtime
        'default_lp':         1 [  38.55m,   38.55m]   38.55m   0.00ns   38.55m         2 [  1.91ms,   35.49m]   17.75m   17.75m   35.49m
  'feasibility_pump':     11466 [ 36.21us, 182.98ms]   1.63ms   1.72ms   18.69s     11463 [288.48us, 157.78ms] 304.55us   1.47ms    3.49s
                'fj':      8060 [106.94ms, 243.92ms] 142.26ms  10.29ms   19.11m      8060 [ 68.87ms, 100.11ms] 100.01ms 347.15us   13.44m
            'max_lp':         1 [  38.55m,   38.55m]   38.55m   0.00ns   38.55m         2 [ 88.80ms,   48.19m]   24.10m   24.09m   48.19m
             'no_lp':         1 [  38.55m,   38.55m]   38.55m   0.00ns   38.55m         2 [  1.68ms,    1.17h]   35.21m   35.21m    1.17h
         'rins/rens':     10207 [  2.18ms, 263.44ms] 112.33ms  42.20ms   19.11m     10206 [384.39us, 100.29ms]  67.72ms  37.56ms   11.52m

Search stats     Bools   Conflicts    Branches  Restarts  BacktrackToRoot   Backtrack     BoolPropag  IntegerPropag
  'default_lp':    482     193'285   9'047'161     1'203        1'514'151   2'059'651     90'462'033    110'139'860
      'max_lp':    482      97'171  10'889'516       516        1'769'834   2'237'916    107'666'465    136'564'795
       'no_lp':    482  19'346'436  27'138'445    64'169          651'585  19'922'102  1'669'101'986    444'052'016

SAT formula      Fixed  Equiv  Total  VarLeft  BinaryClauses  PermanentClauses  TemporaryClauses
  'default_lp':      2      2    482      478          2'438            43'030             9'591
      'max_lp':      2      2    482      478          2'438            42'955            12'244
       'no_lp':      2      2    482      478          2'438           121'581            10'200

SAT stats        ClassicMinim   LitRemoved  LitRemovedBinary   LitLearned  LitForgotten   Subsumed
  'default_lp':       172'257    2'068'883         1'287'969    6'447'106     4'401'120     60'843
      'max_lp':        83'443    1'122'906           533'246    2'734'831     1'634'551     25'767
       'no_lp':    17'362'985  323'027'689       110'300'561  492'559'153   397'166'269  4'987'758

Vivification       Clauses   Decisions  LitTrue  Subsumed  LitRemoved  DecisionReused  Conflicts
  'default_lp':  1'603'005   8'515'279        1     9'698      96'736         371'107        602
      'max_lp':  1'806'817  10'414'467        0    10'789     108'645         369'872        659
       'no_lp':    512'628   4'178'362        0    25'235     314'365         114'403        712

Clause deletion    at_true  l_and_not(l)  to_binary  sub_conflict  sub_extra  sub_decisions  sub_eager  sub_vivify  sub_probing  sub_inpro  blocked  eliminated   forgotten    promoted   conflicts
    'default_lp':    1'308             9          3        60'005        474          1'611        838       9'698          155      2'058        0           0     116'998     379'860     193'285
        'max_lp':      940             8          2        25'434        349            449        333      10'789          202      1'830        0           0      53'740     207'152      97'171
         'no_lp':    3'341            49          3     4'909'571     37'812        194'118     78'187      25'235          345     70'573        0           0  13'901'305  44'204'993  19'346'436

Lp stats         Component  Iterations  AddedCuts  OPTIMAL  DUAL_F.  DUAL_U.
  'default_lp':          1  26'171'076     86'512  289'291        0  170'330
      'max_lp':          1  14'161'440     64'926   31'687   88'986   30'290

Lp dimension        Final dimension of first component
  'default_lp':   444 rows, 345 columns, 18197 entries
      'max_lp':  1567 rows, 488 columns, 24205 entries

Lp debug         CutPropag  CutEqPropag   Adjust  Overflow        Bad  BadScaling
  'default_lp':          0           76  170'326         0  2'446'999           0
      'max_lp':          0          988   30'276         0  1'888'131           0

Lp pool          Constraints  Updates  Simplif  Merged  Shortened  Split  Strengthened       Cuts/Call
  'default_lp':       10'287   18'482        0       0        397      0             0  86'512/166'097
      'max_lp':       13'083   18'967        0       2         94      0         1'818  64'926/134'492

Lp Cut            default_lp  max_lp
          CG_FF:       1'729     181
           CG_K:         854      31
          CG_KL:         806       2
           CG_R:       1'922     137
          CG_RB:          26      41
         CG_RBP:           7      17
         Clique:           -      82
             IB:         106       6
       MIR_1_FF:         739     802
        MIR_1_K:         185      17
       MIR_1_KL:         541      19
        MIR_1_R:         684     274
       MIR_1_RB:           1       5
      MIR_1_RBP:           3       2
      MIR_1_RLT:           -   7'880
       MIR_2_FF:         664     717
        MIR_2_K:         200     106
       MIR_2_KL:         367      62
        MIR_2_R:         945     495
       MIR_2_RB:          19      41
      MIR_2_RBP:           6       3
       MIR_3_FF:         315     220
        MIR_3_K:          93      23
       MIR_3_KL:         128      20
        MIR_3_R:         529     180
       MIR_3_RB:          23      47
      MIR_3_RBP:          13      15
       MIR_4_FF:          86      57
        MIR_4_K:          28       4
       MIR_4_KL:          26       6
        MIR_4_R:         396     142
       MIR_4_RB:          18      33
      MIR_4_RBP:          17      14
       MIR_5_FF:          37      12
        MIR_5_K:          20       2
       MIR_5_KL:           3       1
        MIR_5_R:         282      92
       MIR_5_RB:          22      16
      MIR_5_RBP:          15       5
       MIR_6_FF:          16       6
        MIR_6_K:          11       3
       MIR_6_KL:           1       -
        MIR_6_R:         213     110
       MIR_6_RB:          13      14
      MIR_6_RBP:          11      12
   ZERO_HALF_FF:         470     706
    ZERO_HALF_K:         122     122
   ZERO_HALF_KL:         146       6
    ZERO_HALF_R:      73'615  52'135
   ZERO_HALF_RB:          22       -
  ZERO_HALF_RBP:          17       3

LNS stats       Improv/Calls  Closed  Difficulty  TimeLimit
  'rins/rens':   10207/10207     50%    7.48e-01       0.10

LS stats                                    Batches  Restarts/Perturbs    LinMoves   GenMoves  CompoundMoves  Bactracks  WeightUpdates  ScoreComputed
                             'fj_restart':      555                111  15'067'480          0              0          0     15'308'238     27'059'851
                    'fj_restart_compound':      355                102           0  4'116'530        250'064  1'932'993          8'532     65'767'043
                'fj_restart_compound_obj':      380                 94           0  4'411'794        235'064  2'088'203         10'180     70'413'972
            'fj_restart_compound_perturb':      448                122           0  5'199'351        305'861  2'446'500         10'939     82'826'364
        'fj_restart_compound_perturb_obj':      466                120           0  5'359'237        265'572  2'546'588         13'420     86'273'201
                       'fj_restart_decay':      712                123  24'196'461          0              0          0      1'032'751     14'244'688
              'fj_restart_decay_compound':      283                106           0  3'389'856        543'664  1'422'918          3'809     53'092'837
          'fj_restart_decay_compound_obj':      651                125           0  8'413'112      1'332'241  3'540'186          8'457    122'894'747
      'fj_restart_decay_compound_perturb':      712                109           0  9'354'397      1'481'157  3'936'366          9'186    134'554'544
  'fj_restart_decay_compound_perturb_obj':      586                119           0  7'520'891      1'184'016  3'168'123          7'605    110'572'693
                   'fj_restart_decay_obj':      403                 96  13'688'344          0              0          0        584'968      8'070'981
               'fj_restart_decay_perturb':      306                110  10'389'635          0              0          0        443'937      6'130'819
           'fj_restart_decay_perturb_obj':      354                105  12'024'328          0              0          0        513'885      7'095'918
                         'fj_restart_obj':      690                108  18'450'692          0              0          0     19'297'438     36'963'180
                     'fj_restart_perturb':      851                120  22'731'905          0              0          0     23'404'594     48'050'706
                 'fj_restart_perturb_obj':      308                104   8'216'888          0              0          0      8'363'892     15'854'796

Solution repositories    Added  Queried  Synchro
    'alternative_path':      0        0        0
      'best_solutions':      0        0        0
   'fj solution hints':  1'766        0    1'766
        'lp solutions':  1'197   10'207    1'191
                'pump':      0        0

Improving bounds shared    Num  Sym
            'default_lp':    2    0

Clauses shared    #Exported  #Imported  #BinaryRead  #BinaryTotal
   'default_lp':      2'395     50'992          321           321
       'max_lp':      2'526     50'624          321           321
        'no_lp':     50'069      4'597          321           321

LRAT_status: NA
CpSolverResponse summary:
status: UNKNOWN
objective: NA
best_bound: NA
integers: 357
booleans: 482
conflicts: 193285
branches: 9047161
propagations: 90462033
integer_propagations: 110139860
restarts: 1203
lp_iterations: 26171076
walltime: 2313.37
usertime: 2313.37
deterministic_time: 10746.9
gap_integral: 0

{
  "board_size": 22,
  "parity_proved": 0,
  "target": 34,
  "child_id": 1552,
  "child_count": 2640,
  "partition": "unknown_pair_x_diag_plus_twos_x_diag_minus_twos",
  "build_seconds": 0.08422565460205078,
  "workers": 4,
  "requested_seed": 2026073652,
  "effective_seed": 2026073652,
  "main_diagonal_pair": [
    3,
    17
  ],
  "pair_index": 70,
  "diag_plus_twos": 16,
  "diag_minus_twos": 16,
  "pair_excess": 0,
  "residual_certificate_slack": 112,
  "analytic_minimum_line_defect": 24,
  "analytic_defect_details": {
    "row_costs": {
      "12": 6,
      "13": 3,
      "14": 0,
      "15": 0,
      "16": 0,
      "17": 0
    },
    "column_costs": {
      "12": 6,
      "13": 3,
      "14": 0,
      "15": 0,
      "16": 0,
      "17": 0
    },
    "plus_cost": 24,
    "minus_cost": 0,
    "row_column_minimum": 0
  },
  "maximal_line_constraints": 2455,
  "analytic_infeasible": false,
  "allowed_points": 242,
  "status": "UNKNOWN",
  "proof_method": "cp_sat_all_lines_with_certificate_profile_cuts",
  "elapsed_seconds": 2313.3721792697906,
  "branches": 9047161,
  "conflicts": 193285
}
